40
1 0 4
2 0 3
2 1 2
4 1 4
4 2 5
4 3 5
5 1 2
5 2 2
5 4 4
6 1 3
7 3 4
7 6 3
8 2 3
8 3 5
8 6 1
9 1 4
9 3 3
9 4 4
9 7 3
9 8 2
10 0 5
10 2 1
10 3 5
10 4 3
10 7 3
10 8 5
10 9 5
11 0 3
11 1 5
11 2 4
11 3 4
11 4 1
11 5 2
11 7 4
11 9 1
12 1 2
12 2 3
12 6 1
12 10 1
13 0 4
13 1 5
13 2 5
13 4 2
13 7 1
13 8 4
13 10 3
13 12 2
14 0 3
14 1 1
14 4 3
14 7 5
14 8 2
14 12 5
14 13 4
15 2 5
15 3 1
15 4 5
15 6 3
15 8 3
15 10 4
15 11 5
15 12 2
15 13 3
15 14 2
16 3 3
16 4 1
16 5 5
16 6 1
16 9 3
16 10 2
16 11 1
16 13 1
17 0 3
17 2 2
17 4 5
17 6 3
17 10 5
17 11 1
17 12 5
17 13 5
18 0 2
18 1 1
18 3 1
18 5 1
18 9 4
18 11 1
18 12 2
18 13 5
18 16 5
18 17 2
19 0 4
19 11 3
19 12 1
19 15 3
19 16 3
19 17 3
20 1 5
20 2 3
20 4 1
20 6 3
20 7 2
20 12 2
20 14 3
20 15 1
20 18 5
20 19 2
21 0 1
21 2 5
21 3 5
21 5 1
21 6 5
21 8 2
21 18 5
22 1 1
22 3 3
22 4 1
22 5 4
22 6 5
22 7 5
22 9 4
22 10 3
22 18 1
22 19 2
22 20 1
23 0 3
23 1 1
23 2 5
23 3 4
23 4 5
23 5 1
23 6 3
23 8 3
23 9 5
23 10 4
23 11 1
23 12 3
23 13 1
23 14 2
23 15 4
23 16 3
24 0 5
24 3 1
24 4 3
24 5 1
24 7 5
24 9 4
24 11 3
24 13 3
24 15 1
24 18 3
24 19 3
24 20 4
24 22 4
24 23 3
25 1 3
25 2 3
25 3 5
25 4 2
25 5 3
25 6 3
25 9 5
25 10 4
25 12 2
25 14 4
25 16 5
25 24 5
26 0 3
26 5 3
26 13 4
26 15 1
26 18 2
26 19 1
26 20 3
26 22 5
26 23 2
26 24 1
26 25 1
27 0 4
27 4 3
27 8 3
27 9 1
27 10 2
27 13 5
27 14 2
27 19 4
27 22 4
27 23 2
27 26 4
28 0 4
28 2 3
28 3 3
28 4 3
28 8 1
28 11 1
28 19 2
28 21 4
28 24 4
28 26 5
29 1 5
29 3 4
29 5 2
29 6 2
29 7 5
29 8 2
29 10 2
29 11 4
29 12 4
29 15 4
29 18 5
29 19 1
29 22 4
29 23 2
29 24 5
29 25 2
29 26 4
29 27 4
30 0 1
30 2 4
30 3 3
30 6 4
30 7 4
30 8 2
30 9 2
30 11 2
30 12 2
30 15 1
30 18 3
30 19 1
30 20 4
30 21 1
30 23 3
30 24 1
30 26 4
31 1 5
31 2 5
31 3 4
31 4 2
31 7 4
31 9 1
31 10 4
31 11 5
31 18 2
31 20 4
31 21 5
31 24 4
31 25 5
31 26 4
31 27 3
31 28 3
32 3 3
32 4 2
32 6 1
32 8 2
32 12 1
32 13 3
32 14 4
32 17 3
32 18 3
32 19 4
32 21 4
32 22 2
32 25 5
32 26 5
32 28 4
32 29 5
32 30 1
33 1 2
33 2 2
33 4 2
33 5 4
33 6 1
33 8 1
33 13 4
33 14 5
33 15 4
33 16 4
33 19 4
33 22 4
33 23 4
33 27 1
33 30 2
33 31 2
34 2 2
34 7 2
34 8 5
34 9 3
34 11 1
34 12 2
34 13 3
34 14 4
34 15 5
34 19 2
34 20 3
34 22 3
34 23 1
34 29 4
34 30 5
34 32 4
35 0 4
35 2 2
35 4 5
35 5 1
35 7 4
35 9 4
35 10 1
35 13 5
35 14 2
35 16 2
35 17 2
35 19 5
35 27 4
35 28 3
35 29 3
35 33 2
36 0 5
36 2 3
36 3 3
36 4 3
36 5 3
36 7 4
36 8 5
36 9 5
36 10 5
36 11 5
36 13 2
36 15 1
36 17 4
36 19 5
36 20 3
36 24 5
36 25 4
36 26 4
36 28 3
36 29 3
36 32 3
36 34 3
36 35 3
37 0 4
37 3 1
37 5 1
37 7 2
37 8 2
37 9 5
37 10 3
37 13 3
37 15 4
37 17 4
37 18 2
37 21 2
37 23 3
37 24 3
37 26 4
37 27 5
37 28 4
37 29 1
37 33 1
37 34 2
37 35 3
37 36 1
38 1 2
38 2 1
38 4 2
38 6 2
38 8 3
38 10 1
38 11 5
38 14 3
38 15 4
38 17 1
38 19 2
38 21 3
38 22 2
38 23 2
38 24 5
38 25 4
38 26 1
38 29 5
38 30 3
38 31 5
38 32 3
38 33 2
38 34 3
38 35 4
38 37 4
39 0 2
39 3 3
39 5 5
39 7 4
39 8 2
39 11 1
39 12 1
39 13 3
39 14 1
39 17 3
39 19 3
39 22 4
39 23 4
39 24 2
39 25 1
39 27 2
39 30 2
39 31 1
39 33 2
39 34 4
39 36 5
39 38 4
